p cnf 31 80
a 20 0
e 1 2 3 4 5 6 7 8 9 10 11 12 13 14 15 16 17 18 19 21 22 23 24 25 26 27 28 29 30 31 0
-3 -1 0
-3 -2 0
1 2 3 0
3 4 0
-3 4 0
-6 -4 0
-6 -5 0
4 5 6 0
-8 -4 0
-8 7 0
4 -7 8 0
-9 8 0
-9 -7 0
-8 7 9 0
2 11 0
-2 11 0
10 -11 -12 0
-10 11 -12 0
10 11 12 0
-10 -11 12 0
-12 8 -13 0
12 -8 -13 0
-12 -8 13 0
12 8 13 0
-9 13 -14 0
9 -13 -14 0
-9 -13 14 0
9 13 14 0
-15 -6 0
-15 -14 0
6 14 15 0
-16 -2 -17 0
16 2 -17 0
-16 2 17 0
16 -2 17 0
-18 15 0
-18 17 0
-15 -17 18 0
19 -1 0
19 10 0
1 -10 -19 0
20 -5 0
20 -16 0
5 16 -20 0
-21 19 0
-21 -20 0
-19 20 21 0
-21 8 -22 0
21 -8 -22 0
-21 -8 22 0
21 8 22 0
23 -18 0
23 -22 0
18 22 -23 0
26 24 0
26 -25 0
-24 25 -26 0
27 -19 0
27 -7 0
19 7 -27 0
-28 26 0
-28 27 0
-26 -27 28 0
29 3 0
29 -4 0
-3 4 -29 0
30 28 0
30 -29 0
-28 29 -30 0
31 23 0
31 -30 0
-23 30 -31 0
9 13 12 -30 5 -14 2 0
-24 -28 20 -7 19 0
-20 23 -9 13 -21 28 0
-25 -20 22 2 -3 31 0
6 15 -25 24 -3 17 0
19 -10 -7 29 0
-31 -2 -6 0
31 0
